benchmarks/bfuzz0/2253518234141032995628327109442258419487.smt2
(set-logic QF_FP)
(declare-const x0 (_ FloatingPoint 8 24))
(declare-const x1 (_ FloatingPoint 8 24))
(declare-const x2 (_ FloatingPoint 8 24))
(assert (fp.eq (fp.neg (fp.sub RNE (fp.mul RNE (fp.mul RNE x1 x1) (fp.neg x0)) (fp.add RNE (fp.neg x2) (fp.div RNE x2 x2)))) (fp.div RNE (fp.div RNE (fp.sub RNE (fp.sub RNE x2 x0) (fp.add RNE x0 x1)) (fp.add RNE (fp.sub RNE x2 x2) (fp.add RNE x1 x0))) (fp.neg (fp.div RNE (fp.add RNE x1 x2) (fp.add RNE x2 x1))))))
(check-sat)
