db/data/2253518234141032995628327109442258419487.z3.out
sat
-------------------
39.702446995
